unsat
(:cnf-encoding-aux-vars 8
 :elim-unconstrained    3
 :max-memory            18.72
 :memory                18.52
 :nlsat-arith-var       6
 :nlsat-atoms           35
 :nlsat-bool-var        14
 :nlsat-clauses         69
 :nlsat-conflicts       4
 :nlsat-decisions       11
 :nlsat-propagations    22
 :num-allocs            109994
 :rlimit-count          13101
 :solve-eqs-elim-vars   30
 :solve-eqs-steps       52
 :time                  0.01
 :total-time            0.02)
